c Vstupni promenne (CNF index -> nazev):
c   1 -> a1
c   2 -> a2
c   3 -> a3
c   4 -> a4
c   5 -> a5
c   6 -> a6
c   7 -> a7
c   8 -> a8
c   9 -> a9
c   10 -> a10
c   11 -> a11
c   12 -> a12
c   13 -> a13
c   14 -> a14
c   15 -> a15
c   16 -> a16
c   17 -> a17
c   18 -> a18
c   19 -> a19
c   20 -> a20
c   21 -> a21
c   22 -> a22
c   23 -> a23
c   24 -> a24
c   25 -> a25
c   26 -> a26
c   27 -> a27
c   28 -> a28
c   29 -> a29
c   30 -> a30
c   31 -> a31
c   32 -> a32
c   33 -> a33
c   34 -> a34
c   35 -> a35
c   36 -> a36
c   37 -> a37
c   38 -> a38
c   39 -> a39
c   40 -> a40
c   41 -> a41
c   42 -> a42
c   43 -> a43
c   44 -> a44
c   45 -> a45
c   46 -> a46
c   47 -> a47
c   48 -> a48
c   49 -> a49
c   50 -> a50
c Pomocne promenne:
c   51, 52, 53, 54, 55, 56, 57, 58, 59, 60, 61, 62, 63, 64, 65, 66, 67, 68, 69, 70, 71, 72, 73, 74, 75, 76, 77, 78, 79, 80, 81, 82, 83, 84, 85, 86, 87, 88, 89, 90, 91, 92, 93, 94, 95, 96, 97, 98, 99
c Koren: 99
c
p cnf 99 148
-51 49 0
-51 50 0
51 -49 -50 0
-52 48 0
-52 51 0
52 -48 -51 0
-53 47 0
-53 52 0
53 -47 -52 0
-54 46 0
-54 53 0
54 -46 -53 0
-55 45 0
-55 54 0
55 -45 -54 0
-56 44 0
-56 55 0
56 -44 -55 0
-57 43 0
-57 56 0
57 -43 -56 0
-58 42 0
-58 57 0
58 -42 -57 0
-59 41 0
-59 58 0
59 -41 -58 0
-60 40 0
-60 59 0
60 -40 -59 0
-61 39 0
-61 60 0
61 -39 -60 0
-62 38 0
-62 61 0
62 -38 -61 0
-63 37 0
-63 62 0
63 -37 -62 0
-64 36 0
-64 63 0
64 -36 -63 0
-65 35 0
-65 64 0
65 -35 -64 0
-66 34 0
-66 65 0
66 -34 -65 0
-67 33 0
-67 66 0
67 -33 -66 0
-68 32 0
-68 67 0
68 -32 -67 0
-69 31 0
-69 68 0
69 -31 -68 0
-70 30 0
-70 69 0
70 -30 -69 0
-71 29 0
-71 70 0
71 -29 -70 0
-72 28 0
-72 71 0
72 -28 -71 0
-73 27 0
-73 72 0
73 -27 -72 0
-74 26 0
-74 73 0
74 -26 -73 0
-75 25 0
-75 74 0
75 -25 -74 0
-76 24 0
-76 75 0
76 -24 -75 0
-77 23 0
-77 76 0
77 -23 -76 0
-78 22 0
-78 77 0
78 -22 -77 0
-79 21 0
-79 78 0
79 -21 -78 0
-80 20 0
-80 79 0
80 -20 -79 0
-81 19 0
-81 80 0
81 -19 -80 0
-82 18 0
-82 81 0
82 -18 -81 0
-83 17 0
-83 82 0
83 -17 -82 0
-84 16 0
-84 83 0
84 -16 -83 0
-85 15 0
-85 84 0
85 -15 -84 0
-86 14 0
-86 85 0
86 -14 -85 0
-87 13 0
-87 86 0
87 -13 -86 0
-88 12 0
-88 87 0
88 -12 -87 0
-89 11 0
-89 88 0
89 -11 -88 0
-90 10 0
-90 89 0
90 -10 -89 0
-91 9 0
-91 90 0
91 -9 -90 0
-92 8 0
-92 91 0
92 -8 -91 0
-93 7 0
-93 92 0
93 -7 -92 0
-94 6 0
-94 93 0
94 -6 -93 0
-95 5 0
-95 94 0
95 -5 -94 0
-96 4 0
-96 95 0
96 -4 -95 0
-97 3 0
-97 96 0
97 -3 -96 0
-98 2 0
-98 97 0
98 -2 -97 0
-99 1 98 0
99 -1 0
99 -98 0
99 0
